n=12;
m=52;
k=2;
initial_edges=[
(1, 12),
(1, 3),
(1, 7),
(1, 5),
(1, 4),
(1, 8),
(2, 8),
(2, 3),
(2, 7),
(2, 9),
(2, 4),
(2, 5),
(2, 11),
(2, 10),
(2, 12),
(2, 6),
(3, 6),
(3, 4),
(3, 9),
(3, 12),
(3, 8),
(3, 7),
(3, 10),
(4, 11),
(4, 7),
(4, 6),
(4, 8),
(4, 9),
(4, 5),
(4, 12),
(4, 10),
(5, 12),
(5, 9),
(5, 7),
(5, 10),
(5, 8),
(6, 7),
(6, 12),
(6, 8),
(6, 9),
(6, 11),
(7, 8),
(7, 12),
(7, 11),
(7, 9),
(8, 9),
(9, 12),
(9, 10),
(9, 11),
(10, 11),
(10, 12),
(11, 12),
];